NAME : morphed20-2-27
COMMENT : Generated using the function morphInstances from the R-package netgen (Bossek,2015) - Number of clusters: 2 Alpha: 0.5
TYPE : TSP
DIMENSION : 20
EDGE_WEIGHT_TYPE : EUC_2D
NODE_COORD_SECTION
1 90.9179187506 27.3479405003
2 26.1974405223 85.9808815178
3 87.4134940623 53.9745710843
4 40.3430283047 48.0566353837
5 35.4097862145 84.6636161947
6 57.1742523146 27.5322684291
7 26.2256342766 63.5104155322
8 25.8154634224 40.6446742793
9 35.3121723696 36.3706983276
10 28.2530839467 50.2341074812
11 70.9204810816 29.5836893236
12 84.0479149433 49.4066428615
13 62.8634168564 24.9107569967
14 76.847591061 33.3291535174
15 85.0456362673 30.6545101426
16 78.7092456943 52.4519021393
17 96.0955123492 48.3268707356
18 20.0059268752 63.722710856
19 55.8140638734 66.0638097232
20 23.9109175351 51.7131072984
EOF
